#######################################
### Exact MIP solver for the HHCRSP ###
#######################################
-- Instance file: new-instances/HHCRSP_300_60_24_1.2_C_RC.txt
-- Max threads: 4
-- Time limit: 999999 seconds
-- Use initial solution: No
Trivial flow violations prevented generating 1185170 variables.
Version identifier: 20.1.0.0 | 2020-11-10 | 9bedb6d68
CPXPARAM_Threads                                 4
CPXPARAM_TimeLimit                               999999
Parallel mode: deterministic, using up to 4 threads for concurrent optimization:
 * Starting dual Simplex on 1 thread...
 * Starting Barrier on 3 threads...
Tried aggregator 1 time.
LP Presolve eliminated 46992 rows and 10802 columns.
Reduced LP has 1270516 rows, 1206163 columns, and 29183540 nonzeros.
Presolve time = 34.41 sec. (6392.45 ticks)
Symmetry aggregator did 2059826 additional substitutions.

Iteration log . . .
Iteration:     1   Dual objective     =             0.000000
Iteration:  1336   Dual objective     =           380.333333

Dual crossover.
  Dual:  Fixing 1911 variables.
     1910 DMoves:  Infeasibility  2.16660023e-12  Objective  3.83000000e+02
        0 DMoves:  Infeasibility  1.10184084e-12  Objective  3.83000000e+02
  Dual:  Pushed 42, exchanged 1869.
  Primal:  Fixing 1317 variables.
     1316 PMoves:  Infeasibility  1.66533454e-16  Objective  3.83000000e+02
        0 PMoves:  Infeasibility  1.66533454e-16  Objective  3.83000000e+02
  Primal:  Pushed 1174, exchanged 143.

Dual simplex solved model.


Solution status from MIP model:
-- Processing time: 60.425 sec.
-- Memory used: 1092.58 MB
-- Best bound: inf
-- Obj value: 383
-- Gap: inf%
-- Total distance: 1149
-- Total tardiness: 0
-- Largest tardiness: 0
